<number of tasks>
50

<cycle time>
1000

<order strength>
0.2


<task times>
1 113
2 162
3 98
4 265
5 189
6 106
7 94
8 38
9 174
10 158
11 159
12 142
13 199
14 99
15 221
16 156
17 205
18 109
19 109
20 248
21 150
22 34
23 199
24 85
25 152
26 296
27 38
28 148
29 189
30 131
31 242
32 50
33 70
34 271
35 75
36 85
37 129
38 179
39 47
40 246
41 61
42 97
43 161
44 229
45 206
46 265
47 213
48 194
49 135
50 68

<precedence relations>
2,7
2,8
2,10
3,10
4,6
4,11
4,27
5,9
5,10
5,13
5,41
6,15
7,14
7,16
7,17
8,12
8,13
12,41
13,20
13,21
14,22
14,25
14,32
15,28
16,19
16,23
17,18
17,24
18,26
18,28
18,30
20,26
21,27
21,47
21,49
22,29
24,39
25,29
26,34
28,31
29,35
29,49
30,32
30,33
30,36
30,37
31,42
32,41
32,44
33,38
33,40
33,43
34,43
35,39
38,47
40,47
40,48
40,49
41,50
42,45
42,46

<end>
